0000000000000000
0111111100000000
0111111111000000
0111111111100000
0000000011100000
0000000001110000
0000000001110000
0000000001110000
0000000001110000
0000000001110000
0000000001110000
0000000001110000
0000000001110000
0111111111111100
0111111111111100
0000000000000000
